(declare-const p2_2 Real)
(declare-const income Real)
(declare-const p6_6 Real)
(declare-const p3_9 Real)
(declare-const fee_bl Real)
(declare-const p5_2 Real)
(declare-const p4_8 Real)
(declare-const p5_55 Real)
(assert (= p2_2 (* 0.022 (ite (> income 5000) 5000 income))))
(assert (= p3_9 (ite (> income 5000) (* 0.039 (- (ite (> income 10000) 10000 income) 5000)) 0)))
(assert (= p4_8 (ite (> income 10000) (* 0.048 (- (ite (> income 20000) 20000 income) 10000)) 0)))
(assert (= p5_2 (ite (> income 20000) (* 0.052 (- (ite (> income 25000) 25000 income) 20000)) 0)))
(assert (= p5_55 (ite (> income 25000) (* 0.0555 (- (ite (> income 60000) 60000 income) 25000)) 0)))
(assert (= p6_6 (ite (> income 60000) (* 0.066 (- income 60000)) 0)))
(assert (= fee_bl (+ (+ (+ (+ (+ p2_2 p3_9) p4_8) p5_2) p5_55) p6_6)))